submitit INFO (2023-04-29 16:44:06,417) - Starting with JobEnvironment(job_id=27485, hostname=cpunode2, local_rank=0(5), node=0(1), global_rank=0(5))
submitit INFO (2023-04-29 16:44:06,417) - Loading pickle: /h/30/pashootan/Matrix-Mult-CP/src/../logs/2x2x2_4_Apr29_16:44:05/27485_submitted.pkl
 ! --------------------------------------------------- CP Optimizer 22.1.1.0 --
 ! Satisfiability problem - 48 variables, 64 constraints
 ! TimeLimit            = 7200
 ! Workers              = 8
 ! LogPeriod            = 10000000
 ! RandomSeed           = 4699
 ! Initial process time : 0.00s (0.00s extraction + 0.00s propagation)
 !  . Log search space  : 76.1 (before), 76.1 (after)
 !  . Memory usage      : 397.6 kB (before), 397.6 kB (after)
 ! Using parallel search with 8 workers.
 ! ----------------------------------------------------------------------------
 !               Branches  Non-fixed    W       Branch decision
 ! ----------------------------------------------------------------------------
 ! Search completed, model has no solution.
 ! ----------------------------------------------------------------------------
 ! Number of branches     : 43476513
 ! Number of fails        : 21498799
 ! Total memory usage     : 35.2 MB (35.1 MB CP Optimizer + 0.0 MB Concert)
 ! Time spent in solve    : 48.95s (48.95s engine + 0.00s extraction)
 ! Search speed (br. / s) : 888363.6
 ! ----------------------------------------------------------------------------
Infeasible
Saving stats to: /h/30/pashootan/Matrix-Mult-CP/logs/2x2x2_4_Apr29_16:44:05/27485_0_stats.csv
submitit INFO (2023-04-29 16:44:55,798) - Job completed successfully
